scenarios/sols/small/emicp_milp/026.sol
objective value:                     1.30564243134745
x(0,1,0)                                            1 	(obj:0)
x(1,8,0)                                            1 	(obj:0)
x(2,3,1)                                            1 	(obj:0)
x(3,6,1)                                            1 	(obj:0)
x(4,6,2)                                            1 	(obj:0)
x(5,6,0)                                            1 	(obj:0)
x(6,10,0)                                           1 	(obj:0)
x(6,12,1)                                           1 	(obj:0)
x(6,14,2)                                           1 	(obj:0)
x(8,5,0)                                            1 	(obj:0)
x(10,0,0)                                           1 	(obj:0)
x(12,2,1)                                           1 	(obj:0)
x(14,4,2)                                           1 	(obj:0)
xc(0,9)                                             1 	(obj:0)
xc(1,0)                                             1 	(obj:0)
xc(2,12)                                            1 	(obj:0)
xc(4,14)                                            1 	(obj:0)
xc(5,9)                                             1 	(obj:0)
u(0,2)                               1.30564243134745 	(obj:0)
u(1,0)                              0.158011315358762 	(obj:0)
u(1,1)                               1.30564243134745 	(obj:0)
u(2,0)                               1.30564243134745 	(obj:0)
u(2,2)                               1.30564243134745 	(obj:0)
u(3,1)                              0.243917885566447 	(obj:0)
u(3,2)                               1.30564243134745 	(obj:0)
u(4,1)                               1.30564243134745 	(obj:0)
u(5,0)                              0.519226516478046 	(obj:0)
u(5,1)                               1.30564243134745 	(obj:0)
u(6,0)                              0.922249315571348 	(obj:0)
u(6,1)                              0.860221283119748 	(obj:0)
u(6,2)                              0.517327507170702 	(obj:0)
u(8,0)                              0.484669300751245 	(obj:0)
u(8,1)                               1.30564243134745 	(obj:0)
u(9,1)                               1.30564243134745 	(obj:0)
u(10,0)                              1.30564243134745 	(obj:0)
u(10,1)                             0.487835771132894 	(obj:0)
u(11,0)                               0.1510095837656 	(obj:0)
u(11,1)                             0.487835771132894 	(obj:0)
u(12,0)                             0.487835771132894 	(obj:0)
u(12,1)                              1.30564243134745 	(obj:0)
u(12,2)                              0.12829578661157 	(obj:0)
u(13,0)                             0.487835771132894 	(obj:0)
u(13,1)                              0.22341059838425 	(obj:0)
u(13,2)                              0.21684646748664 	(obj:0)
u(14,0)                             0.487835771132894 	(obj:0)
u(14,1)                             0.487835771132894 	(obj:0)
u(14,2)                              1.30564243134745 	(obj:0)
u(15,0)                                0.061745272264 	(obj:0)
u(15,1)                             0.487835771132894 	(obj:0)
u(16,0)                             0.379979673824401 	(obj:0)
u(16,1)                               0.3723855119869 	(obj:0)
u(17,0)                             0.215786990875301 	(obj:0)
u(17,1)                               0.3185567974453 	(obj:0)
u(18,0)                            0.0683789777224995 	(obj:0)
u(18,1)                             0.487835771132894 	(obj:0)
u(19,0)                               0.2716825582146 	(obj:0)
u(19,1)                             0.487835771132894 	(obj:0)
u(19,2)                                 0.13774816682 	(obj:0)
f(0,1,2)                                            1 	(obj:0)
f(0,9,0)                                            1 	(obj:0)
f(0,9,1)                                            1 	(obj:0)
f(0,9,3)                                            1 	(obj:0)
f(0,9,4)                                            1 	(obj:0)
f(1,0,1)                                            1 	(obj:0)
f(1,8,2)                                            1 	(obj:0)
f(2,3,2)                                            1 	(obj:0)
f(3,6,2)                                            1 	(obj:0)
f(3,6,3)                                            1 	(obj:0)
f(4,6,4)                                            1 	(obj:0)
f(5,9,2)                                            1 	(obj:0)
f(6,10,2)                                           1 	(obj:0)
f(6,10,3)                                           1 	(obj:0)
f(6,10,4)                                           1 	(obj:0)
f(8,5,2)                                            1 	(obj:0)
f(10,0,2)                                           1 	(obj:0)
f(10,0,3)                                           1 	(obj:0)
f(10,0,4)                                           1 	(obj:0)
z_r(0,)                              1.30564243134745 	(obj:0)
z_r(1,)                              1.30564243134745 	(obj:0)
z_r(2,)                              1.30564243134745 	(obj:0)
z                                    1.30564243134745 	(obj:1)
